c NeuroCodeBench 2.0 CNF formula with verdict Unsat
p cnf 27 39
1 -12 22 6 -10 26 -13 0
-1 -26 -27 -3 -19 0
1 12 8 10 -24 0
1 -12 22 -6 -9 -27 21 0
1 12 -8 18 10 -19 -15 0
1 12 8 -10 0
-1 26 2 -15 0
-1 26 -2 -27 -22 0
1 -12 -22 -3 0
1 12 -8 18 10 -19 15 0
1 12 -8 -18 -11 -14 -10 0
-1 -26 -27 3 17 0
-1 26 -2 27 0
1 12 8 10 24 0
1 -12 22 -6 -9 27 0
1 -12 -22 3 -4 -8 0
1 -12 22 6 -10 -26 0
1 12 -8 18 -10 0
1 -12 22 6 -10 26 13 0
-1 -26 -27 3 -17 0
-1 -26 27 -8 18 25 0
-1 -26 27 -8 -18 0
-1 -26 -27 -3 19 0
-1 26 2 15 -4 0
1 -12 -22 3 -4 8 -10 0
1 12 -8 -18 -11 14 0
-1 -26 27 8 0
1 12 -8 -18 -11 -14 10 0
-1 26 -2 -27 22 0
1 -12 22 -6 9 0
1 12 -8 -18 11 0
1 -12 22 -6 -9 -27 -21 0
1 12 -8 18 10 19 -6 0
1 -12 -22 3 4 0
-1 -26 27 -8 18 -25 0
-1 26 2 15 4 0
1 12 -8 18 10 19 6 0
1 -12 22 6 10 0
1 -12 -22 3 -4 8 10 0
